decision_x1=[0,7];
decision_x2=[0,7];
decision_x3=[0,7];
decision_x4=[0,7];
decision_x5=[0,7];
decision_x6=[0,7];
decision_x7=[0,7];
decision_x8=[0,7];
decision_x9=[0,7];
decision_x10=[0,7];
decision_x11=[0,7];
decision_x12=[0,7];
decision_x13=[0,7];
decision_x14=[0,7];
decision_x15=[0,7];
decision_x16=[0,7];
decision_x17=[0,7];
decision_x18=[0,7];
random_y1=[0,7];
random_y2=[0,7];
random_y3=[0,7];
random_y4=[0,7];
random_y5=[0,7];
random_y6=[0,7];
random_y7=[0,7];
random_y8=[0,7];
constraint_x2_x1=[
0,0,6.7|
0,1,4.8|
0,2,9.8|
0,3,6.7|
0,4,9.5|
0,5,9.5|
0,6,9|
0,7,2.5|
1,0,4.8|
1,1,5.4|
1,2,9.6|
1,3,9.7|
1,4,1.7|
1,5,7.9|
1,6,3.8|
1,7,2.1|
2,0,1|
2,1,1.4|
2,2,0.89|
2,3,8.6|
2,4,5.7|
2,5,2.5|
2,6,4.3|
2,7,7.4|
3,0,1.6|
3,1,0.55|
3,2,8.7|
3,3,1.9|
3,4,6.9|
3,5,0.13|
3,6,5.7|
3,7,1.5|
4,0,9.4|
4,1,6.9|
4,2,5.7|
4,3,0.71|
4,4,9.6|
4,5,2.2|
4,6,9.6|
4,7,0.8|
5,0,6.2|
5,1,0.63|
5,2,5.9|
5,3,0.78|
5,4,9.7|
5,5,8.4|
5,6,2.6|
5,7,5.8|
6,0,8.4|
6,1,2.6|
6,2,9.1|
6,3,9.7|
6,4,4.1|
6,5,1.4|
6,6,1.4|
6,7,3.5|
7,0,4.3|
7,1,0.9|
7,2,1.7|
7,3,5.1|
7,4,1.7|
7,5,4.7|
7,6,2.5|
7,7,6.7|
];
constraint_x3_x2=[
0,0,6|
0,1,5.4|
0,2,8.1|
0,3,0.63|
0,4,4.1|
0,5,0.093|
0,6,8.3|
0,7,4.3|
1,0,9.3|
1,1,3.4|
1,2,3.5|
1,3,9.7|
1,4,8.6|
1,5,3.4|
1,6,5.7|
1,7,8.5|
2,0,5.8|
2,1,9.8|
2,2,1.9|
2,3,7.1|
2,4,2.3|
2,5,5.7|
2,6,6.9|
2,7,5.7|
3,0,0.35|
3,1,2.3|
3,2,3.6|
3,3,0.032|
3,4,4.8|
3,5,4.2|
3,6,3.3|
3,7,8.4|
4,0,2.2|
4,1,4.9|
4,2,3.3|
4,3,7.1|
4,4,7.2|
4,5,8.2|
4,6,3.1|
4,7,9.9|
5,0,6.7|
5,1,7|
5,2,0.68|
5,3,4.9|
5,4,4|
5,5,7.4|
5,6,2|
5,7,6.9|
6,0,3.2|
6,1,1.8|
6,2,6.7|
6,3,2.9|
6,4,5.4|
6,5,0.85|
6,6,5.4|
6,7,5|
7,0,3|
7,1,6.9|
7,2,3.1|
7,3,5.8|
7,4,4.6|
7,5,3.6|
7,6,8.5|
7,7,6.1|
];
constraint_x4_x3=[
0,0,0.066|
0,1,5.4|
0,2,7.9|
0,3,3.5|
0,4,5|
0,5,7.2|
0,6,3.7|
0,7,9|
1,0,9.3|
1,1,5.5|
1,2,0.43|
1,3,7.2|
1,4,2.9|
1,5,3.9|
1,6,5.8|
1,7,3.1|
2,0,7.8|
2,1,3|
2,2,2.8|
2,3,6.9|
2,4,9.7|
2,5,3.6|
2,6,4.1|
2,7,4.9|
3,0,0.7|
3,1,4.9|
3,2,0.34|
3,3,6.5|
3,4,9.7|
3,5,5.9|
3,6,3.7|
3,7,8.7|
4,0,0.064|
4,1,6.4|
4,2,0.69|
4,3,0.1|
4,4,7.1|
4,5,10|
4,6,5.8|
4,7,3|
5,0,3.8|
5,1,1|
5,2,6.4|
5,3,4.3|
5,4,6.3|
5,5,8.3|
5,6,1.3|
5,7,9.4|
6,0,3.2|
6,1,9|
6,2,2.6|
6,3,5.5|
6,4,8.4|
6,5,1.6|
6,6,2.8|
6,7,4.4|
7,0,6.3|
7,1,9.4|
7,2,0.45|
7,3,3.7|
7,4,1.8|
7,5,4.7|
7,6,2.7|
7,7,8.2|
];
constraint_x5_x1=[
0,0,1.8|
0,1,6.9|
0,2,4.9|
0,3,2.6|
0,4,9.9|
0,5,2.6|
0,6,0.87|
0,7,4.2|
1,0,2.7|
1,1,2.5|
1,2,5.4|
1,3,4.5|
1,4,5.3|
1,5,1.9|
1,6,4.4|
1,7,8.9|
2,0,3.6|
2,1,4.1|
2,2,2.5|
2,3,5.5|
2,4,5.9|
2,5,7.8|
2,6,6.8|
2,7,8.8|
3,0,9.8|
3,1,5.4|
3,2,2.6|
3,3,1.7|
3,4,0.33|
3,5,6.5|
3,6,3.1|
3,7,4.8|
4,0,7.7|
4,1,7|
4,2,1.9|
4,3,1.5|
4,4,0.56|
4,5,2.1|
4,6,6|
4,7,4.5|
5,0,0.23|
5,1,0.55|
5,2,9.9|
5,3,1.1|
5,4,8.9|
5,5,3.8|
5,6,1.6|
5,7,7.8|
6,0,4.4|
6,1,9.9|
6,2,1.2|
6,3,2.5|
6,4,0.61|
6,5,7.5|
6,6,5.4|
6,7,3.2|
7,0,7.1|
7,1,2.3|
7,2,1.8|
7,3,6.8|
7,4,1.7|
7,5,6.1|
7,6,5.6|
7,7,9.5|
];
constraint_x6_x2=[
0,0,9.2|
0,1,3.1|
0,2,7.2|
0,3,8.4|
0,4,2.9|
0,5,3.5|
0,6,1.9|
0,7,1.5|
1,0,3.3|
1,1,1.7|
1,2,2.9|
1,3,4.2|
1,4,1.4|
1,5,7.6|
1,6,1.8|
1,7,1.6|
2,0,8.9|
2,1,1.7|
2,2,5.4|
2,3,9.7|
2,4,0.33|
2,5,8.3|
2,6,1.8|
2,7,9.9|
3,0,5.5|
3,1,0.32|
3,2,7.5|
3,3,1.6|
3,4,1.1|
3,5,8.2|
3,6,0.18|
3,7,6.8|
4,0,3.9|
4,1,1.8|
4,2,8.9|
4,3,8.4|
4,4,6.8|
4,5,8|
4,6,5.1|
4,7,8|
5,0,3.5|
5,1,1.5|
5,2,9|
5,3,0.99|
5,4,2.7|
5,5,9.6|
5,6,9.8|
5,7,7.8|
6,0,3.8|
6,1,8.3|
6,2,3.2|
6,3,0.5|
6,4,1.1|
6,5,5.5|
6,6,5.5|
6,7,6.6|
7,0,7.8|
7,1,6.6|
7,2,2.4|
7,3,7.2|
7,4,2.8|
7,5,2.8|
7,6,7.1|
7,7,7.3|
];
constraint_x6_x5=[
0,0,1.5|
0,1,0.69|
0,2,5.6|
0,3,6|
0,4,4.1|
0,5,0.32|
0,6,2.7|
0,7,4.2|
1,0,3.2|
1,1,7.9|
1,2,1.5|
1,3,7.8|
1,4,3.4|
1,5,7.5|
1,6,4.9|
1,7,3.3|
2,0,8.4|
2,1,6|
2,2,9.6|
2,3,6.5|
2,4,2.8|
2,5,8.7|
2,6,5.4|
2,7,2.3|
3,0,5.6|
3,1,3.1|
3,2,7.9|
3,3,2.1|
3,4,2.7|
3,5,6.6|
3,6,0.4|
3,7,5.2|
4,0,1.3|
4,1,9.5|
4,2,9.1|
4,3,7.2|
4,4,9.5|
4,5,5.5|
4,6,1.6|
4,7,6.4|
5,0,1.1|
5,1,5.1|
5,2,8.2|
5,3,2.3|
5,4,7.5|
5,5,9|
5,6,0.88|
5,7,6.8|
6,0,4|
6,1,8|
6,2,0.24|
6,3,1.1|
6,4,1.7|
6,5,7.4|
6,6,0.4|
6,7,7.5|
7,0,2.7|
7,1,3.3|
7,2,2.4|
7,3,9.4|
7,4,9.1|
7,5,5.2|
7,6,4.1|
7,7,9.4|
];
constraint_x7_x3=[
0,0,6.9|
0,1,0.047|
0,2,7.5|
0,3,0.93|
0,4,6.3|
0,5,0.37|
0,6,2.3|
0,7,2.6|
1,0,1.6|
1,1,6.4|
1,2,4.2|
1,3,0.7|
1,4,7.4|
1,5,2.2|
1,6,7.9|
1,7,7.6|
2,0,0.37|
2,1,7.5|
2,2,1.2|
2,3,6|
2,4,0.58|
2,5,8.2|
2,6,1|
2,7,2.8|
3,0,4.8|
3,1,3.1|
3,2,5.8|
3,3,9.1|
3,4,6.3|
3,5,2.1|
3,6,6.4|
3,7,9.3|
4,0,6.3|
4,1,4.2|
4,2,10|
4,3,1.5|
4,4,4.4|
4,5,9.8|
4,6,9.6|
4,7,4.2|
5,0,7.8|
5,1,8.5|
5,2,1.8|
5,3,2.3|
5,4,2.1|
5,5,8.2|
5,6,9.1|
5,7,3.7|
6,0,0.89|
6,1,6.1|
6,2,3.4|
6,3,2.2|
6,4,6.5|
6,5,2.6|
6,6,8.9|
6,7,2.8|
7,0,2.8|
7,1,8.8|
7,2,1.8|
7,3,8.2|
7,4,8|
7,5,1.8|
7,6,7.9|
7,7,0.22|
];
constraint_x7_x6=[
0,0,6.6|
0,1,3.6|
0,2,5.9|
0,3,7.4|
0,4,6.9|
0,5,8|
0,6,7.2|
0,7,1.5|
1,0,1.9|
1,1,5.9|
1,2,1.9|
1,3,8.6|
1,4,1.9|
1,5,7.3|
1,6,0.61|
1,7,0.51|
2,0,4.6|
2,1,7.8|
2,2,0.059|
2,3,2.3|
2,4,8.6|
2,5,5.5|
2,6,3.3|
2,7,7.3|
3,0,7.4|
3,1,7.2|
3,2,4.1|
3,3,1.7|
3,4,9.4|
3,5,6|
3,6,7.2|
3,7,1.4|
4,0,7.7|
4,1,1.1|
4,2,4.1|
4,3,3.4|
4,4,3.3|
4,5,2.6|
4,6,3.6|
4,7,3.1|
5,0,3.7|
5,1,8.4|
5,2,5.3|
5,3,2.2|
5,4,3|
5,5,8.7|
5,6,1.3|
5,7,0.55|
6,0,3.9|
6,1,0.083|
6,2,0.008|
6,3,3.6|
6,4,0.89|
6,5,8.7|
6,6,0.78|
6,7,5.8|
7,0,2.3|
7,1,6.5|
7,2,6.9|
7,3,0.67|
7,4,5.6|
7,5,6.5|
7,6,0.027|
7,7,3.1|
];
constraint_x8_x4=[
0,0,2.3|
0,1,0.86|
0,2,6.3|
0,3,8.3|
0,4,3.2|
0,5,7.2|
0,6,2.9|
0,7,2.4|
1,0,9.9|
1,1,6.7|
1,2,0.81|
1,3,7.1|
1,4,1.4|
1,5,1.4|
1,6,8.7|
1,7,6.4|
2,0,8.6|
2,1,8.9|
2,2,1.8|
2,3,4.1|
2,4,5.1|
2,5,2.4|
2,6,7.6|
2,7,3.1|
3,0,8.3|
3,1,5.2|
3,2,6|
3,3,3.2|
3,4,4.9|
3,5,9.3|
3,6,3|
3,7,3.9|
4,0,2.7|
4,1,7|
4,2,2.7|
4,3,7.3|
4,4,9.3|
4,5,2|
4,6,0.39|
4,7,2.2|
5,0,0.29|
5,1,2.5|
5,2,7.3|
5,3,7.2|
5,4,9.4|
5,5,5.8|
5,6,4.2|
5,7,6.3|
6,0,8.2|
6,1,3.2|
6,2,8.8|
6,3,9.1|
6,4,1.9|
6,5,8.8|
6,6,7.4|
6,7,5.9|
7,0,3.8|
7,1,5.7|
7,2,2|
7,3,3.6|
7,4,7.6|
7,5,0.16|
7,6,7.2|
7,7,4|
];
constraint_x8_x7=[
0,0,4|
0,1,8.7|
0,2,7|
0,3,4.3|
0,4,1.3|
0,5,1.8|
0,6,0.54|
0,7,8.7|
1,0,8.9|
1,1,4.9|
1,2,3.6|
1,3,5|
1,4,7.6|
1,5,7.3|
1,6,8.4|
1,7,8.4|
2,0,2.3|
2,1,10|
2,2,10|
2,3,2.4|
2,4,9.4|
2,5,9.3|
2,6,9.5|
2,7,0.55|
3,0,4.1|
3,1,8.5|
3,2,3.7|
3,3,7.4|
3,4,5.5|
3,5,2|
3,6,2.8|
3,7,6.9|
4,0,5|
4,1,3.6|
4,2,5.9|
4,3,3.4|
4,4,9.3|
4,5,4.4|
4,6,7.7|
4,7,9.8|
5,0,3.3|
5,1,6.6|
5,2,0.1|
5,3,5.5|
5,4,9.2|
5,5,7.6|
5,6,2.7|
5,7,6.2|
6,0,7|
6,1,3.8|
6,2,3.9|
6,3,2|
6,4,2.2|
6,5,6.4|
6,6,6.9|
6,7,7.6|
7,0,6.7|
7,1,6.1|
7,2,4.2|
7,3,9.8|
7,4,0.15|
7,5,6.1|
7,6,2.6|
7,7,0.48|
];
constraint_x9_x5=[
0,0,0.39|
0,1,5.9|
0,2,2.4|
0,3,7.9|
0,4,2.2|
0,5,1.9|
0,6,5.8|
0,7,3.1|
1,0,7.8|
1,1,5.2|
1,2,3.8|
1,3,3|
1,4,5.5|
1,5,5.8|
1,6,2|
1,7,0.48|
2,0,9.9|
2,1,8.4|
2,2,8.2|
2,3,0.38|
2,4,0.34|
2,5,2.2|
2,6,9.4|
2,7,5.4|
3,0,9.3|
3,1,0.0062|
3,2,6.5|
3,3,6|
3,4,0.77|
3,5,3.6|
3,6,2.4|
3,7,0.92|
4,0,0.41|
4,1,8.1|
4,2,4.3|
4,3,2|
4,4,3.5|
4,5,2.8|
4,6,7.3|
4,7,5.4|
5,0,9.5|
5,1,8.2|
5,2,3.9|
5,3,5.3|
5,4,8.7|
5,5,6.7|
5,6,1.2|
5,7,9.6|
6,0,9.5|
6,1,9.2|
6,2,9.9|
6,3,3.2|
6,4,5.2|
6,5,0.68|
6,6,2.1|
6,7,3.2|
7,0,2.1|
7,1,1|
7,2,7.3|
7,3,0.39|
7,4,5.6|
7,5,6.9|
7,6,6.3|
7,7,4.7|
];
constraint_x10_x6=[
0,0,7.1|
0,1,8.4|
0,2,5.6|
0,3,6.1|
0,4,6.1|
0,5,9.9|
0,6,9|
0,7,3.6|
1,0,0.32|
1,1,2.8|
1,2,8.8|
1,3,7.6|
1,4,8.1|
1,5,5.3|
1,6,3.8|
1,7,9|
2,0,4.8|
2,1,7.1|
2,2,0.39|
2,3,0.83|
2,4,9.2|
2,5,3.4|
2,6,2|
2,7,3|
3,0,6|
3,1,9.4|
3,2,0.9|
3,3,4.7|
3,4,8.4|
3,5,2.1|
3,6,1.8|
3,7,9.5|
4,0,9.3|
4,1,7.2|
4,2,4.1|
4,3,1.1|
4,4,5.6|
4,5,1.2|
4,6,0.93|
4,7,3.6|
5,0,4|
5,1,2|
5,2,7.7|
5,3,6.2|
5,4,7.1|
5,5,5.8|
5,6,10|
5,7,7.1|
6,0,4.3|
6,1,9.6|
6,2,8.9|
6,3,7.3|
6,4,2.3|
6,5,1.1|
6,6,0.12|
6,7,1|
7,0,7.4|
7,1,9|
7,2,2.8|
7,3,7.8|
7,4,5.6|
7,5,6.7|
7,6,6.2|
7,7,3.4|
];
constraint_x10_x9=[
0,0,6.6|
0,1,2.8|
0,2,8.7|
0,3,9.3|
0,4,5.7|
0,5,4.2|
0,6,5.4|
0,7,0.59|
1,0,8.2|
1,1,6.8|
1,2,4.8|
1,3,1.7|
1,4,4.2|
1,5,7.9|
1,6,2.5|
1,7,4.1|
2,0,6.2|
2,1,9|
2,2,7|
2,3,8|
2,4,6.9|
2,5,8.7|
2,6,8.8|
2,7,9.3|
3,0,5|
3,1,3.4|
3,2,7.4|
3,3,1.9|
3,4,0.0064|
3,5,6.9|
3,6,1.1|
3,7,9.7|
4,0,8.9|
4,1,0.61|
4,2,7.8|
4,3,3.5|
4,4,0.29|
4,5,2.5|
4,6,8.4|
4,7,2.4|
5,0,6|
5,1,6.9|
5,2,3.7|
5,3,4.6|
5,4,6.3|
5,5,5.7|
5,6,6|
5,7,4.2|
6,0,7.7|
6,1,5.4|
6,2,3.9|
6,3,4.8|
6,4,9.4|
6,5,6.2|
6,6,6.8|
6,7,0.47|
7,0,2.2|
7,1,5|
7,2,4.4|
7,3,7.7|
7,4,9.5|
7,5,6.9|
7,6,7.8|
7,7,7|
];
constraint_x11_x7=[
0,0,2.8|
0,1,7|
0,2,0.41|
0,3,4.4|
0,4,5.8|
0,5,2.9|
0,6,6.5|
0,7,7.9|
1,0,3.5|
1,1,5.2|
1,2,7.5|
1,3,0.28|
1,4,8.2|
1,5,2.6|
1,6,4.9|
1,7,6.1|
2,0,1.9|
2,1,2.3|
2,2,7.6|
2,3,5.8|
2,4,0.98|
2,5,7|
2,6,7.8|
2,7,0.24|
3,0,7.8|
3,1,2.7|
3,2,5|
3,3,9.8|
3,4,8.7|
3,5,3.4|
3,6,7.9|
3,7,7.1|
4,0,7.6|
4,1,7.1|
4,2,9.6|
4,3,0.23|
4,4,8.5|
4,5,5.5|
4,6,7.2|
4,7,8|
5,0,5|
5,1,3.5|
5,2,5.9|
5,3,1.8|
5,4,4.2|
5,5,9.9|
5,6,2|
5,7,9.3|
6,0,1.5|
6,1,9.7|
6,2,1.3|
6,3,8.1|
6,4,5.1|
6,5,2.7|
6,6,3.9|
6,7,7.6|
7,0,1.4|
7,1,4.1|
7,2,6.4|
7,3,0.37|
7,4,3|
7,5,3.4|
7,6,3.5|
7,7,3.4|
];
constraint_x11_x10=[
0,0,8.8|
0,1,8.3|
0,2,6.2|
0,3,1|
0,4,3.1|
0,5,4.3|
0,6,9|
0,7,7.4|
1,0,4.2|
1,1,3.6|
1,2,2.7|
1,3,6.1|
1,4,5.6|
1,5,8.7|
1,6,7.5|
1,7,4.3|
2,0,6.5|
2,1,8|
2,2,2.9|
2,3,2.3|
2,4,3.9|
2,5,6.4|
2,6,2.1|
2,7,0.028|
3,0,8.9|
3,1,5.1|
3,2,7.4|
3,3,2.4|
3,4,3.7|
3,5,0.049|
3,6,3.9|
3,7,1.5|
4,0,8.3|
4,1,7.6|
4,2,7.5|
4,3,7.8|
4,4,0.94|
4,5,8|
4,6,4.2|
4,7,8.4|
5,0,8.8|
5,1,1.2|
5,2,6.1|
5,3,8.5|
5,4,3.5|
5,5,8.5|
5,6,2.1|
5,7,9.2|
6,0,9.3|
6,1,4|
6,2,6.3|
6,3,5.8|
6,4,7.7|
6,5,0.03|
6,6,9.3|
6,7,9.4|
7,0,6.6|
7,1,5.4|
7,2,6.5|
7,3,1.6|
7,4,5|
7,5,9.5|
7,6,0.99|
7,7,7.8|
];
constraint_x12_x8=[
0,0,9.2|
0,1,7.3|
0,2,4.9|
0,3,1.7|
0,4,0.12|
0,5,2.6|
0,6,6|
0,7,0.92|
1,0,2.2|
1,1,5.9|
1,2,4.6|
1,3,1.2|
1,4,1.5|
1,5,9.7|
1,6,7.7|
1,7,5.4|
2,0,7.3|
2,1,5.7|
2,2,9.2|
2,3,4.1|
2,4,7|
2,5,3.3|
2,6,0.77|
2,7,8.4|
3,0,4|
3,1,4.6|
3,2,7.4|
3,3,6.6|
3,4,3|
3,5,3.6|
3,6,8.9|
3,7,1.6|
4,0,1.8|
4,1,7.2|
4,2,6.4|
4,3,8.2|
4,4,7.8|
4,5,6.4|
4,6,4.9|
4,7,7.9|
5,0,1.8|
5,1,1|
5,2,1.5|
5,3,4.8|
5,4,0.76|
5,5,8.9|
5,6,7.7|
5,7,0.82|
6,0,1.9|
6,1,7.8|
6,2,6.6|
6,3,1.2|
6,4,4.5|
6,5,3.4|
6,6,8.7|
6,7,3.1|
7,0,6.4|
7,1,5.2|
7,2,8.3|
7,3,4.3|
7,4,0.14|
7,5,1.1|
7,6,9.7|
7,7,5.6|
];
constraint_x12_x11=[
0,0,5.2|
0,1,7.5|
0,2,8|
0,3,5.6|
0,4,7.1|
0,5,0.28|
0,6,7.1|
0,7,6.9|
1,0,1.6|
1,1,0.17|
1,2,6.3|
1,3,9.1|
1,4,0.19|
1,5,4.7|
1,6,4.2|
1,7,5.4|
2,0,0.27|
2,1,7.7|
2,2,6.2|
2,3,5.3|
2,4,0.78|
2,5,5.8|
2,6,5.4|
2,7,8.5|
3,0,5.8|
3,1,7|
3,2,4.5|
3,3,6|
3,4,6.9|
3,5,3.6|
3,6,5.3|
3,7,5.5|
4,0,3.9|
4,1,9.7|
4,2,0.29|
4,3,7.5|
4,4,4.8|
4,5,5.8|
4,6,1.3|
4,7,5.1|
5,0,6.6|
5,1,5.2|
5,2,4.5|
5,3,1.7|
5,4,6.1|
5,5,0.063|
5,6,8.1|
5,7,3.2|
6,0,8.9|
6,1,7.5|
6,2,4.3|
6,3,4.8|
6,4,9|
6,5,2.5|
6,6,3.4|
6,7,4.3|
7,0,5.8|
7,1,9.5|
7,2,3.8|
7,3,9.8|
7,4,1.7|
7,5,2|
7,6,8.2|
7,7,8.1|
];
constraint_x13_x9=[
0,0,2.5|
0,1,5.3|
0,2,5.9|
0,3,8.3|
0,4,6.4|
0,5,9.7|
0,6,7.6|
0,7,5.8|
1,0,7.6|
1,1,8.9|
1,2,3.5|
1,3,9.1|
1,4,3.5|
1,5,9.3|
1,6,9|
1,7,4.7|
2,0,1.9|
2,1,1.8|
2,2,0.76|
2,3,5.9|
2,4,6.5|
2,5,4.4|
2,6,9|
2,7,4.9|
3,0,4.7|
3,1,9.2|
3,2,9|
3,3,4.5|
3,4,7.6|
3,5,4.6|
3,6,2.2|
3,7,5.4|
4,0,8.4|
4,1,3.8|
4,2,2.4|
4,3,8.7|
4,4,7.1|
4,5,2.9|
4,6,5.2|
4,7,8.4|
5,0,1.6|
5,1,8.1|
5,2,1.5|
5,3,5.7|
5,4,5.3|
5,5,6.3|
5,6,8.7|
5,7,2.5|
6,0,4.8|
6,1,3.9|
6,2,7.3|
6,3,9.8|
6,4,0.38|
6,5,1.4|
6,6,4|
6,7,9.9|
7,0,8.3|
7,1,3|
7,2,9.4|
7,3,4.3|
7,4,5.7|
7,5,7.5|
7,6,6.8|
7,7,5.4|
];
constraint_x14_x10=[
0,0,9.9|
0,1,3.7|
0,2,8|
0,3,8.5|
0,4,7.5|
0,5,9.7|
0,6,2.7|
0,7,4.3|
1,0,1.1|
1,1,7|
1,2,4.7|
1,3,7.2|
1,4,2.9|
1,5,6.8|
1,6,9|
1,7,1.2|
2,0,3.8|
2,1,7.4|
2,2,8.2|
2,3,7.9|
2,4,9.2|
2,5,6.8|
2,6,3.7|
2,7,6.2|
3,0,8.9|
3,1,0.75|
3,2,7.4|
3,3,7.1|
3,4,2.7|
3,5,8.3|
3,6,5.2|
3,7,6.4|
4,0,3|
4,1,4.5|
4,2,3.3|
4,3,4.7|
4,4,9|
4,5,8.1|
4,6,5.5|
4,7,3.1|
5,0,5.4|
5,1,0.035|
5,2,3.9|
5,3,5.4|
5,4,6.1|
5,5,7.4|
5,6,4.9|
5,7,0.93|
6,0,8|
6,1,9.5|
6,2,3|
6,3,3.5|
6,4,8.5|
6,5,3.3|
6,6,8.1|
6,7,6.3|
7,0,7.5|
7,1,4.2|
7,2,3.2|
7,3,1.9|
7,4,4.1|
7,5,6.8|
7,6,6.2|
7,7,1.3|
];
constraint_x15_x11=[
0,0,6.2|
0,1,2.3|
0,2,3.9|
0,3,7.2|
0,4,5|
0,5,7.8|
0,6,7.1|
0,7,3.1|
1,0,0.39|
1,1,5.6|
1,2,6.6|
1,3,3.2|
1,4,7.2|
1,5,4.6|
1,6,3.2|
1,7,5.2|
2,0,7.8|
2,1,0.83|
2,2,5.9|
2,3,7.9|
2,4,9.3|
2,5,9.2|
2,6,9.8|
2,7,1.7|
3,0,0.32|
3,1,3.6|
3,2,5.6|
3,3,7.6|
3,4,6.3|
3,5,3.9|
3,6,5.9|
3,7,9|
4,0,2.2|
4,1,5.5|
4,2,2.3|
4,3,5.3|
4,4,5.7|
4,5,3.4|
4,6,8.7|
4,7,3.4|
5,0,5.9|
5,1,2.3|
5,2,5.1|
5,3,4.5|
5,4,8.3|
5,5,3.8|
5,6,7.6|
5,7,9.9|
6,0,3.5|
6,1,6.6|
6,2,0.38|
6,3,7.6|
6,4,7.1|
6,5,1.7|
6,6,1.7|
6,7,2.8|
7,0,0.95|
7,1,3.4|
7,2,0.6|
7,3,2.7|
7,4,2|
7,5,4.8|
7,6,1.2|
7,7,9.2|
];
constraint_x16_x12=[
0,0,0.57|
0,1,2.6|
0,2,7.9|
0,3,1.7|
0,4,6.3|
0,5,3|
0,6,9|
0,7,9.2|
1,0,2.6|
1,1,9.9|
1,2,2.3|
1,3,5|
1,4,0.72|
1,5,8.3|
1,6,1.9|
1,7,5.5|
2,0,0.76|
2,1,5.9|
2,2,5|
2,3,7.4|
2,4,7.6|
2,5,9.9|
2,6,9.4|
2,7,2.1|
3,0,5.2|
3,1,2.6|
3,2,1.5|
3,3,3|
3,4,2.1|
3,5,2.2|
3,6,8.2|
3,7,0.36|
4,0,1.3|
4,1,8.5|
4,2,3.2|
4,3,5.1|
4,4,6.5|
4,5,1.2|
4,6,8.3|
4,7,4.3|
5,0,0.48|
5,1,8.2|
5,2,2.2|
5,3,1.2|
5,4,3|
5,5,9.4|
5,6,7.6|
5,7,2.2|
6,0,9.9|
6,1,4.5|
6,2,4.3|
6,3,6.2|
6,4,8.3|
6,5,8.8|
6,6,9|
6,7,9.3|
7,0,6.5|
7,1,2.4|
7,2,8.2|
7,3,8.8|
7,4,2.3|
7,5,6.8|
7,6,9.8|
7,7,3.1|
];
constraint_x17_x13=[
0,0,6.5|
0,1,5.3|
0,2,4.8|
0,3,8.2|
0,4,8.8|
0,5,1|
0,6,6.6|
0,7,3.7|
1,0,4.4|
1,1,9.5|
1,2,2.4|
1,3,0.45|
1,4,6.2|
1,5,3.8|
1,6,0.1|
1,7,8.9|
2,0,1|
2,1,0.48|
2,2,2|
2,3,9.7|
2,4,6|
2,5,7.7|
2,6,6.6|
2,7,1.2|
3,0,0.0023|
3,1,5.1|
3,2,7.8|
3,3,2.2|
3,4,2.9|
3,5,4.5|
3,6,4.1|
3,7,3.1|
4,0,9.5|
4,1,9.8|
4,2,8.9|
4,3,2.2|
4,4,7.4|
4,5,3.8|
4,6,5.5|
4,7,3.5|
5,0,9.9|
5,1,2.3|
5,2,5.4|
5,3,6.4|
5,4,8.2|
5,5,0.35|
5,6,5.7|
5,7,3.6|
6,0,1.7|
6,1,8.6|
6,2,5.8|
6,3,0.14|
6,4,1.5|
6,5,6.9|
6,6,9.9|
6,7,6.1|
7,0,5.4|
7,1,4.4|
7,2,8.2|
7,3,3.3|
7,4,3.3|
7,5,6.1|
7,6,9.4|
7,7,4.7|
];
constraint_x18_x14=[
0,0,4.7|
0,1,8.7|
0,2,1.9|
0,3,9.6|
0,4,5.4|
0,5,1.5|
0,6,2.9|
0,7,3.2|
1,0,5.3|
1,1,6.4|
1,2,1.6|
1,3,1.2|
1,4,3.9|
1,5,5.8|
1,6,1|
1,7,0.13|
2,0,8.3|
2,1,5.5|
2,2,3.1|
2,3,6.7|
2,4,4.6|
2,5,5|
2,6,2.6|
2,7,1.1|
3,0,2.8|
3,1,5.9|
3,2,3.1|
3,3,3.9|
3,4,7.6|
3,5,9.2|
3,6,2.2|
3,7,0.4|
4,0,0.82|
4,1,3.3|
4,2,8.4|
4,3,6|
4,4,3.8|
4,5,4.9|
4,6,9|
4,7,2.3|
5,0,6|
5,1,8|
5,2,1.7|
5,3,4.4|
5,4,7.4|
5,5,7.7|
5,6,7.1|
5,7,2.3|
6,0,0.31|
6,1,4|
6,2,6|
6,3,7|
6,4,1.2|
6,5,7.8|
6,6,3.7|
6,7,9.1|
7,0,2.8|
7,1,3.6|
7,2,5.3|
7,3,8.2|
7,4,9.5|
7,5,9.5|
7,6,8.6|
7,7,6.7|
];
constraint_x1_y1=[
0,0,0.31|
0,1,6.2|
0,2,4.1|
0,3,1.3|
0,4,5.2|
0,5,3.5|
0,6,4.7|
0,7,3.1|
1,0,9.6|
1,1,4.6|
1,2,0.65|
1,3,5.7|
1,4,8.6|
1,5,4.7|
1,6,8.3|
1,7,0.29|
2,0,4.6|
2,1,9.1|
2,2,6.3|
2,3,9.3|
2,4,4.3|
2,5,3|
2,6,1.7|
2,7,5.2|
3,0,2.5|
3,1,8.9|
3,2,5.2|
3,3,1.1|
3,4,5.2|
3,5,3.1|
3,6,3|
3,7,0.61|
4,0,0.72|
4,1,8|
4,2,3.8|
4,3,4.7|
4,4,5.1|
4,5,1.4|
4,6,5.2|
4,7,8.1|
5,0,4.4|
5,1,9.5|
5,2,8.8|
5,3,0.65|
5,4,6|
5,5,7.1|
5,6,6.8|
5,7,3.8|
6,0,2.6|
6,1,4.4|
6,2,6.3|
6,3,1.2|
6,4,5.6|
6,5,9.6|
6,6,2.7|
6,7,4.5|
7,0,8.4|
7,1,6.9|
7,2,1.7|
7,3,9.8|
7,4,5|
7,5,8.3|
7,6,9.5|
7,7,5.1|
];
constraint_x2_y2=[
0,0,8.4|
0,1,6.4|
0,2,8.6|
0,3,8.9|
0,4,7.3|
0,5,7.9|
0,6,5.6|
0,7,0.55|
1,0,4.8|
1,1,7.5|
1,2,0.011|
1,3,6.4|
1,4,5.9|
1,5,8.8|
1,6,0.53|
1,7,7.5|
2,0,6.7|
2,1,6.7|
2,2,6.5|
2,3,9|
2,4,7.2|
2,5,9.5|
2,6,3.4|
2,7,2.6|
3,0,7.6|
3,1,4.2|
3,2,1.5|
3,3,5.1|
3,4,2|
3,5,6.5|
3,6,4.5|
3,7,5.3|
4,0,8.4|
4,1,4|
4,2,1.9|
4,3,3.1|
4,4,4|
4,5,6.3|
4,6,1.8|
4,7,7|
5,0,2.8|
5,1,9.1|
5,2,8.4|
5,3,0.66|
5,4,5.7|
5,5,8.4|
5,6,7.7|
5,7,2.8|
6,0,3.1|
6,1,3.3|
6,2,4.8|
6,3,8.2|
6,4,1.1|
6,5,5.4|
6,6,2.3|
6,7,4.1|
7,0,1.3|
7,1,2.9|
7,2,8.8|
7,3,1.6|
7,4,9.6|
7,5,0.76|
7,6,0.49|
7,7,0.78|
];
constraint_x3_y3=[
0,0,2.6|
0,1,5.3|
0,2,3.1|
0,3,5.4|
0,4,7.1|
0,5,5|
0,6,8|
0,7,8.7|
1,0,3.7|
1,1,0.7|
1,2,0.42|
1,3,6.5|
1,4,8.4|
1,5,6.3|
1,6,1.6|
1,7,8.1|
2,0,8|
2,1,0.58|
2,2,7.4|
2,3,4|
2,4,5.1|
2,5,8.5|
2,6,3|
2,7,8.2|
3,0,4.7|
3,1,3.8|
3,2,7.9|
3,3,9.2|
3,4,1.4|
3,5,5.3|
3,6,1.4|
3,7,0.38|
4,0,7.3|
4,1,9.6|
4,2,2.4|
4,3,2.5|
4,4,1.8|
4,5,6.6|
4,6,7.5|
4,7,9|
5,0,9.8|
5,1,2.9|
5,2,2.5|
5,3,8.4|
5,4,3.3|
5,5,2|
5,6,2.7|
5,7,1.6|
6,0,6.8|
6,1,5.5|
6,2,2.7|
6,3,5.7|
6,4,9.8|
6,5,9.9|
6,6,4.8|
6,7,2.5|
7,0,5.1|
7,1,4.6|
7,2,2.2|
7,3,9.2|
7,4,3.3|
7,5,9.8|
7,6,3.2|
7,7,2.4|
];
constraint_x4_y4=[
0,0,3.6|
0,1,5.3|
0,2,5.6|
0,3,8.8|
0,4,0.015|
0,5,9.8|
0,6,0.99|
0,7,4.2|
1,0,5.5|
1,1,1.2|
1,2,0.97|
1,3,4.9|
1,4,7.3|
1,5,8.3|
1,6,9.6|
1,7,5.6|
2,0,7.5|
2,1,9|
2,2,5.3|
2,3,2.5|
2,4,0.51|
2,5,6.1|
2,6,5|
2,7,6.5|
3,0,8.7|
3,1,3.5|
3,2,5.7|
3,3,6.8|
3,4,0.47|
3,5,5.5|
3,6,6.9|
3,7,5.5|
4,0,5.3|
4,1,4.5|
4,2,9.4|
4,3,4.8|
4,4,2.9|
4,5,2.8|
4,6,0.69|
4,7,3.8|
5,0,3.4|
5,1,9.9|
5,2,5.5|
5,3,1.9|
5,4,5.2|
5,5,5.4|
5,6,6.7|
5,7,7.8|
6,0,5.5|
6,1,2.8|
6,2,0.75|
6,3,0.45|
6,4,4.8|
6,5,6.7|
6,6,7.1|
6,7,3.4|
7,0,4.1|
7,1,5.2|
7,2,5.8|
7,3,2|
7,4,8.2|
7,5,4.2|
7,6,5.8|
7,7,0.14|
];
constraint_x5_y5=[
0,0,1|
0,1,5.5|
0,2,9.8|
0,3,4.6|
0,4,1.2|
0,5,3.5|
0,6,9.2|
0,7,1.6|
1,0,8.5|
1,1,9.8|
1,2,0.31|
1,3,3.7|
1,4,2.4|
1,5,0.86|
1,6,0.9|
1,7,5.8|
2,0,7.1|
2,1,1.5|
2,2,8|
2,3,5.7|
2,4,2|
2,5,5.3|
2,6,2.2|
2,7,2.3|
3,0,1|
3,1,6.5|
3,2,3|
3,3,5.9|
3,4,5.1|
3,5,1.9|
3,6,5.9|
3,7,5|
4,0,2.8|
4,1,9.3|
4,2,7|
4,3,5.7|
4,4,0.47|
4,5,5.1|
4,6,5.4|
4,7,4.6|
5,0,6.6|
5,1,8.2|
5,2,2|
5,3,6|
5,4,8.9|
5,5,6.2|
5,6,7|
5,7,9.3|
6,0,0.0068|
6,1,8.6|
6,2,8|
6,3,3|
6,4,7.2|
6,5,6.9|
6,6,1.6|
6,7,7.9|
7,0,3.8|
7,1,7.4|
7,2,0.48|
7,3,9.1|
7,4,1.8|
7,5,2.3|
7,6,7|
7,7,9.6|
];
constraint_x6_y6=[
0,0,6|
0,1,4.5|
0,2,9.3|
0,3,7.2|
0,4,7.5|
0,5,4.8|
0,6,7.3|
0,7,8.3|
1,0,1.2|
1,1,5.5|
1,2,8.1|
1,3,7.8|
1,4,1.5|
1,5,6.6|
1,6,8.6|
1,7,7.7|
2,0,8.4|
2,1,4.4|
2,2,4|
2,3,3.6|
2,4,9.3|
2,5,2|
2,6,8.6|
2,7,1.4|
3,0,5|
3,1,1.3|
3,2,2.4|
3,3,4.8|
3,4,6.2|
3,5,2.3|
3,6,6.8|
3,7,2.4|
4,0,6.3|
4,1,8.3|
4,2,1.3|
4,3,7.2|
4,4,7.7|
4,5,8.1|
4,6,0.19|
4,7,2.8|
5,0,9.2|
5,1,5.1|
5,2,1.1|
5,3,5.9|
5,4,7.5|
5,5,0.1|
5,6,5.5|
5,7,0.36|
6,0,8.6|
6,1,5.2|
6,2,1.3|
6,3,2.5|
6,4,6|
6,5,5.6|
6,6,9.3|
6,7,8.8|
7,0,1.5|
7,1,0.25|
7,2,8.9|
7,3,3.7|
7,4,8.4|
7,5,9.1|
7,6,3.2|
7,7,4.7|
];
constraint_x7_y7=[
0,0,5.4|
0,1,1.6|
0,2,2.4|
0,3,1.9|
0,4,3.8|
0,5,9.4|
0,6,5.6|
0,7,1.6|
1,0,6.2|
1,1,6.2|
1,2,1.7|
1,3,9|
1,4,2.7|
1,5,8.2|
1,6,6.4|
1,7,6.4|
2,0,8.3|
2,1,2.9|
2,2,2.6|
2,3,9.7|
2,4,2.9|
2,5,3.7|
2,6,1.8|
2,7,3|
3,0,6.8|
3,1,4|
3,2,1.3|
3,3,7.9|
3,4,1.3|
3,5,4.3|
3,6,2.3|
3,7,8.2|
4,0,0.057|
4,1,1.3|
4,2,3.2|
4,3,8.1|
4,4,0.71|
4,5,6|
4,6,9.3|
4,7,3.3|
5,0,8.2|
5,1,6.1|
5,2,2|
5,3,4.2|
5,4,7.1|
5,5,8.7|
5,6,8|
5,7,5.6|
6,0,5.7|
6,1,0.8|
6,2,8.6|
6,3,2.9|
6,4,1.2|
6,5,7.3|
6,6,9|
6,7,3.7|
7,0,8.4|
7,1,8.6|
7,2,6.9|
7,3,3.7|
7,4,1.2|
7,5,7.2|
7,6,3.9|
7,7,0.3|
];
constraint_x8_y8=[
0,0,0.51|
0,1,1.7|
0,2,3.6|
0,3,1.8|
0,4,8.4|
0,5,3.8|
0,6,6.7|
0,7,6.5|
1,0,6.5|
1,1,6.2|
1,2,9.3|
1,3,6.4|
1,4,7.7|
1,5,6.9|
1,6,7.7|
1,7,3.8|
2,0,6.7|
2,1,9.2|
2,2,1.7|
2,3,1.1|
2,4,9.9|
2,5,1.3|
2,6,7.5|
2,7,1.6|
3,0,1.6|
3,1,6|
3,2,8.6|
3,3,5.5|
3,4,7.5|
3,5,7|
3,6,9.1|
3,7,7.5|
4,0,2.5|
4,1,0.33|
4,2,5.9|
4,3,4.1|
4,4,6.6|
4,5,0.2|
4,6,3.7|
4,7,4.7|
5,0,7.3|
5,1,6.6|
5,2,5.9|
5,3,3.1|
5,4,2.5|
5,5,6.7|
5,6,2.5|
5,7,1.4|
6,0,3.2|
6,1,6.8|
6,2,6|
6,3,8.6|
6,4,6.2|
6,5,9.5|
6,6,0.14|
6,7,4.2|
7,0,3.2|
7,1,3.9|
7,2,8.4|
7,3,4.7|
7,4,7.5|
7,5,3.8|
7,6,2.5|
7,7,5.5|
];
initial_distribution_y1=[0.15,0.13,0.082,0.25,0.032,0.043,0.17,0.14];
initial_distribution_y2=[0.15,0.014,0.023,0.16,0.17,0.14,0.14,0.2];
initial_distribution_y3=[0.17,0.041,0.23,0.04,0.066,0.054,0.1,0.29];
initial_distribution_y4=[0.13,0.11,0.15,0.14,0.19,0.029,0.14,0.12];
initial_distribution_y5=[0.047,0.063,0.17,0.16,0.15,0.18,0.13,0.099];
initial_distribution_y6=[0.13,0.12,0.13,0.14,0.1,0.074,0.12,0.19];
initial_distribution_y7=[0.14,0.22,0.19,0.066,0.08,0.19,0.048,0.076];
initial_distribution_y8=[0.034,0.14,0.17,0.01,0.21,0.22,0.093,0.12];
transition_y1=[
0.17,0.19,0.2,0.028,0.082,0.21,0.06,0.057|
0.11,0.033,0.031,0.13,0.24,0.0047,0.24,0.21|
0.24,0.19,0.14,0.15,0.016,0.057,0.19,0.01|
0.24,0.021,0.15,0.16,0.024,0.18,0.17,0.067|
0.041,0.09,0.07,0.23,0.19,0.24,0.042,0.095|
0.094,0.11,0.18,0.17,0.01,0.19,0.15,0.094|
0.024,0.09,0.19,0.17,0.15,0.15,0.072,0.16|
0.022,0.0044,0.18,0.1,0.2,0.17,0.14,0.17|
];
transition_y2=[
0.2,0.16,0.18,0.12,0.023,0.017,0.085,0.21|
0.14,0.24,0.094,0.11,0.049,0.079,0.16,0.11|
0.045,0.12,0.29,0.12,0.14,0.07,0.034,0.18|
0.16,0.061,0.13,0.14,0.16,0.14,0.058,0.15|
0.22,0.15,0.13,0.033,0.12,0.18,0.15,0.008|
0.16,0.15,0.19,0.12,0.098,0.13,0.092,0.062|
0.008,0.2,0.11,0.11,0.18,0.09,0.11,0.2|
0.056,0.099,0.23,0.11,0.17,0.25,0.065,0.027|
];
transition_y3=[
0.13,0.17,0.12,0.11,0.15,0.043,0.14,0.13|
0.23,0.097,0.15,0.06,0.14,0.087,0.14,0.095|
0.2,0.21,0.11,0.082,0.07,0.12,0.021,0.19|
0.019,0.035,0.23,0.13,0.28,0.04,0.23,0.03|
0.24,0.037,0.11,0.11,0.15,0.021,0.16,0.18|
0.21,0.1,0.14,0.11,0.048,0.2,0.11,0.073|
0.14,0.056,0.17,0.2,0.076,0.12,0.21,0.043|
0.069,0.1,0.18,0.21,0.24,0.15,0.017,0.037|
];
transition_y4=[
0.18,0.06,0.02,0.2,0.19,0.17,0.12,0.054|
0.24,0.13,0.055,0.041,0.042,0.19,0.04,0.26|
0.16,0.22,0.15,0.013,0.066,0.16,0.036,0.2|
0.24,0.0081,0.061,0.019,0.27,0.18,0.086,0.13|
0.13,0.054,0.14,0.0096,0.24,0.13,0.17,0.13|
0.15,0.072,0.15,0.03,0.16,0.096,0.19,0.15|
0.025,0.19,0.17,0.1,0.17,0.14,0.033,0.17|
0.13,0.17,0.079,0.13,0.085,0.086,0.21,0.099|
];
transition_y5=[
0.15,0.18,0.1,0.04,0.22,0.16,0.093,0.058|
0.23,0.23,0.075,0.11,0.059,0.033,0.1,0.16|
0.23,0.074,0.014,0.38,0.1,0.032,0.12,0.055|
0.059,0.26,0.049,0.064,0.17,0.063,0.12,0.22|
0.16,0.13,0.17,0.096,0.057,0.25,0.11,0.03|
0.0094,0.081,0.13,0.23,0.11,0.19,0.044,0.21|
0.24,0.2,0.048,0.069,0.28,0.078,0.072,0.015|
0.16,0.061,0.13,0.017,0.2,0.093,0.18,0.15|
];
transition_y6=[
0.29,0.011,0.023,0.15,0.084,0.11,0.083,0.25|
0.28,0.11,0.031,0.0061,0.08,0.13,0.27,0.09|
0.086,0.26,0.0044,0.1,0.03,0.17,0.23,0.12|
0.21,0.18,0.0038,0.064,0.21,0.19,0.046,0.092|
0.17,0.044,0.18,0.16,0.06,0.086,0.2,0.089|
0.011,0.23,0.14,0.045,0.095,0.086,0.21,0.18|
0.079,0.013,0.26,0.14,0.073,0.19,0.21,0.039|
0.22,0.051,0.16,0.12,0.099,0.17,0.015,0.17|
];
transition_y7=[
0.08,0.2,0.086,0.042,0.12,0.11,0.2,0.15|
0.16,0.055,0.16,0.19,0.12,0.032,0.17,0.12|
0.22,0.09,0.22,0.06,0.049,0.029,0.094,0.23|
0.019,0.12,0.31,0.12,0.19,0.077,0.064,0.095|
0.29,0.023,0.087,0.017,0.21,0.056,0.28,0.041|
0.1,0.29,0.03,0.15,0.11,0.17,0.028,0.12|
0.0085,0.1,0.18,0.19,0.21,0.13,0.066,0.12|
0.11,0.059,0.076,0.078,0.19,0.19,0.23,0.062|
];
transition_y8=[
0.065,0.26,0.12,0.01,0.14,0.28,0.031,0.094|
0.0076,0.098,0.27,0.11,0.14,0.063,0.07,0.24|
0.04,0.26,0.21,0.023,0.1,0.28,0.053,0.028|
0.053,0.056,0.2,0.075,0.18,0.097,0.16,0.18|
0.17,0.15,0.2,0.15,0.11,0.0066,0.081,0.12|
0.06,0.17,0.19,0.064,0.061,0.24,0.081,0.14|
0.0068,0.18,0.16,0.18,0.14,0.17,0.12,0.038|
0.15,0.078,0.18,0.053,0.02,0.21,0.19,0.12|
];
